72
Deterministic ideal circumcoronene C54H18; source C54 SHA256=c48d2b9c3f7ac58d59cbda613d3304c9b823737f551aa2179bb341bf9de0203f; initial C-H=1.09 A; planar
C  -0.71000000  -6.14878037   0.00000000
C   0.71000000  -6.14878037   0.00000000
C  -2.84000000  -4.91902429   0.00000000
C  -1.42000000  -4.91902429   0.00000000
C   1.42000000  -4.91902429   0.00000000
C   2.84000000  -4.91902429   0.00000000
C  -4.97000000  -3.68926822   0.00000000
C  -3.55000000  -3.68926822   0.00000000
C  -0.71000000  -3.68926822   0.00000000
C   0.71000000  -3.68926822   0.00000000
C   3.55000000  -3.68926822   0.00000000
C   4.97000000  -3.68926822   0.00000000
C  -5.68000000  -2.45951215   0.00000000
C  -2.84000000  -2.45951215   0.00000000
C  -1.42000000  -2.45951215   0.00000000
C   1.42000000  -2.45951215   0.00000000
C   2.84000000  -2.45951215   0.00000000
C   5.68000000  -2.45951215   0.00000000
C  -4.97000000  -1.22975607   0.00000000
C  -3.55000000  -1.22975607   0.00000000
C  -0.71000000  -1.22975607   0.00000000
C   0.71000000  -1.22975607   0.00000000
C   3.55000000  -1.22975607   0.00000000
C   4.97000000  -1.22975607   0.00000000
C  -5.68000000  -0.00000000   0.00000000
C  -2.84000000  -0.00000000   0.00000000
C  -1.42000000  -0.00000000   0.00000000
C   1.42000000  -0.00000000   0.00000000
C   2.84000000  -0.00000000   0.00000000
C   5.68000000  -0.00000000   0.00000000
C  -4.97000000   1.22975607   0.00000000
C  -3.55000000   1.22975607   0.00000000
C  -0.71000000   1.22975607   0.00000000
C   0.71000000   1.22975607   0.00000000
C   3.55000000   1.22975607   0.00000000
C   4.97000000   1.22975607   0.00000000
C  -5.68000000   2.45951215   0.00000000
C  -2.84000000   2.45951215   0.00000000
C  -1.42000000   2.45951215   0.00000000
C   1.42000000   2.45951215   0.00000000
C   2.84000000   2.45951215   0.00000000
C   5.68000000   2.45951215   0.00000000
C  -4.97000000   3.68926822   0.00000000
C  -3.55000000   3.68926822   0.00000000
C  -0.71000000   3.68926822   0.00000000
C   0.71000000   3.68926822   0.00000000
C   3.55000000   3.68926822   0.00000000
C   4.97000000   3.68926822   0.00000000
C  -2.84000000   4.91902429   0.00000000
C  -1.42000000   4.91902429   0.00000000
C   1.42000000   4.91902429   0.00000000
C   2.84000000   4.91902429   0.00000000
C  -0.71000000   6.14878037   0.00000000
C   0.71000000   6.14878037   0.00000000
H  -1.25500000  -7.09274806   0.00000000
H   1.25500000  -7.09274806   0.00000000
H  -3.38500000  -5.86299198   0.00000000
H   3.38500000  -5.86299198   0.00000000
H  -5.51500000  -4.63323591   0.00000000
H   5.51500000  -4.63323591   0.00000000
H  -6.77000000  -2.45951215   0.00000000
H   6.77000000  -2.45951215   0.00000000
H  -6.77000000  -0.00000000   0.00000000
H   6.77000000  -0.00000000   0.00000000
H  -6.77000000   2.45951215   0.00000000
H   6.77000000   2.45951215   0.00000000
H  -5.51500000   4.63323591   0.00000000
H   5.51500000   4.63323591   0.00000000
H  -3.38500000   5.86299198   0.00000000
H   3.38500000   5.86299198   0.00000000
H  -1.25500000   7.09274806   0.00000000
H   1.25500000   7.09274806   0.00000000
