54
Deterministic ideal circumcoronene C54 carbon scaffold; C-C = 1.42 A; planar graphene lattice
C  -0.71000000  -6.14878037   0.00000000
C   0.71000000  -6.14878037   0.00000000
C  -2.84000000  -4.91902429   0.00000000
C  -1.42000000  -4.91902429   0.00000000
C   1.42000000  -4.91902429   0.00000000
C   2.84000000  -4.91902429   0.00000000
C  -4.97000000  -3.68926822   0.00000000
C  -3.55000000  -3.68926822   0.00000000
C  -0.71000000  -3.68926822   0.00000000
C   0.71000000  -3.68926822   0.00000000
C   3.55000000  -3.68926822   0.00000000
C   4.97000000  -3.68926822   0.00000000
C  -5.68000000  -2.45951215   0.00000000
C  -2.84000000  -2.45951215   0.00000000
C  -1.42000000  -2.45951215   0.00000000
C   1.42000000  -2.45951215   0.00000000
C   2.84000000  -2.45951215   0.00000000
C   5.68000000  -2.45951215   0.00000000
C  -4.97000000  -1.22975607   0.00000000
C  -3.55000000  -1.22975607   0.00000000
C  -0.71000000  -1.22975607   0.00000000
C   0.71000000  -1.22975607   0.00000000
C   3.55000000  -1.22975607   0.00000000
C   4.97000000  -1.22975607   0.00000000
C  -5.68000000  -0.00000000   0.00000000
C  -2.84000000  -0.00000000   0.00000000
C  -1.42000000  -0.00000000   0.00000000
C   1.42000000  -0.00000000   0.00000000
C   2.84000000  -0.00000000   0.00000000
C   5.68000000  -0.00000000   0.00000000
C  -4.97000000   1.22975607   0.00000000
C  -3.55000000   1.22975607   0.00000000
C  -0.71000000   1.22975607   0.00000000
C   0.71000000   1.22975607   0.00000000
C   3.55000000   1.22975607   0.00000000
C   4.97000000   1.22975607   0.00000000
C  -5.68000000   2.45951215   0.00000000
C  -2.84000000   2.45951215   0.00000000
C  -1.42000000   2.45951215   0.00000000
C   1.42000000   2.45951215   0.00000000
C   2.84000000   2.45951215   0.00000000
C   5.68000000   2.45951215   0.00000000
C  -4.97000000   3.68926822   0.00000000
C  -3.55000000   3.68926822   0.00000000
C  -0.71000000   3.68926822   0.00000000
C   0.71000000   3.68926822   0.00000000
C   3.55000000   3.68926822   0.00000000
C   4.97000000   3.68926822   0.00000000
C  -2.84000000   4.91902429   0.00000000
C  -1.42000000   4.91902429   0.00000000
C   1.42000000   4.91902429   0.00000000
C   2.84000000   4.91902429   0.00000000
C  -0.71000000   6.14878037   0.00000000
C   0.71000000   6.14878037   0.00000000
