75
CLASS 2 / C3 | source=archive/logs/cooh_gqd_class2_c3_b3lyp_optfreq_v02.log | mode=1 | freq=-54.3969 cm-1 | PLUS imaginary-mode displacement | max_atom=0.10 A
C   0.0095280345  5.2054750000 -2.4965750000
C   0.0100081724  4.5191840000 -3.6738430000
C   0.0190850000  5.2045590000  0.0000000000
C   0.0109933103  4.5229420000 -1.2309970000
C   0.0115805862  3.0845750000 -3.7075370000
C   0.0095305862  2.3658510000 -4.9102210000
C   0.0336659655  5.2054750000  2.4965750000
C   0.0282346897  4.5229420000  1.2309970000
C   0.0135187241  3.0935200000 -1.2304710000
C   0.0117607241  2.3786100000 -2.4648570000
C   0.0087768621  0.9652780000 -4.9307190000
C   0.0078110000  0.2148780000 -6.1562540000
C   0.0306978276  4.5191840000  3.6738430000
C   0.0204152759  3.0935200000  1.2304710000
C   0.0155430000  2.3849490000  0.0000000000
C   0.0092468621  0.9593040000 -2.4651660000
C   0.0067438621  0.2477130000 -3.6939430000
C   0.0029880000 -1.1482830000 -6.1554560000
C   0.0219254138  3.0845750000  3.7075370000
C   0.0186572759  2.3786100000  2.4648570000
C   0.0110840000  0.9559970000  0.0000000000
C   0.0090070000  0.2458820000 -1.2283140000
C   0.0034640000 -1.1775290000 -3.6937230000
C   0.0005630000 -1.8975590000 -4.9292210000
C   0.0198754138  2.3658510000  4.9102210000
C   0.0126951379  0.9593040000  2.4651660000
C   0.0090070000  0.2458820000  1.2283140000
C   0.0039090000 -1.1729410000 -1.2283790000
C   0.0012360000 -1.8876180000 -2.4649870000
C  -0.0029428621 -3.2986570000 -4.9076090000
C   0.0122251379  0.9652780000  4.9307190000
C   0.0101921379  0.2477130000  3.6939430000
C   0.0039090000 -1.1729410000  1.2283790000
C   0.0015490000 -1.8824350000  0.0000000000
C  -0.0041450000 -3.3070360000 -2.4638890000
C  -0.0070990000 -4.0175910000 -3.7047010000
C   0.0078110000  0.2148780000  6.1562540000
C   0.0034640000 -1.1775290000  3.6937230000
C   0.0012360000 -1.8876180000  2.4649870000
C  -0.0039320000 -3.3108130000  0.0000000000
C  -0.0066440000 -4.0197160000 -1.2296250000
C  -0.0109058621 -5.4541740000 -3.6677260000
C   0.0029880000 -1.1482830000  6.1554560000
C   0.0005630000 -1.8975590000  4.9292210000
C  -0.0041450000 -3.3070360000  2.4638890000
C  -0.0066440000 -4.0197160000  1.2296250000
C  -0.0121990000 -5.4495720000 -1.2243290000
C  -0.0150220000 -6.1358730000 -2.4869990000
C  -0.0063911379 -3.2986570000  4.9076090000
C  -0.0070990000 -4.0175910000  3.7047010000
C  -0.0121990000 -5.4495720000  1.2243290000
C  -0.0147920000 -6.1314940000  0.0000000000
C  -0.0143541379 -5.4541740000  3.6677260000
C  -0.0150220000 -6.1358730000  2.4869990000
H   0.0086306207  6.2904480000 -2.5096410000
H   0.0103040345  5.0552610000 -4.6179220000
H   0.0109625862  2.9098090000 -5.8505120000
H   0.0431133793  6.2904480000  2.5096410000
H   0.0078088621  0.7645410000 -7.0926640000
H   0.0344419655  5.0552610000  4.6179220000
H   0.0025901379 -1.6986850000 -7.0914680000
H   0.0213074138  2.9098090000  5.8505120000
H  -0.0052128621 -3.8421650000 -5.8482450000
H   0.0112571379  0.7645410000  7.0926640000
H  -0.0131718621 -5.9907430000 -4.6117430000
H  -0.0008581379 -1.6986850000  7.0914680000
H  -0.0192330000 -7.2217530000 -2.4797690000
H  -0.0086611379 -3.8421650000  5.8482450000
H  -0.0190340000 -7.2179340000  0.0000000000
H  -0.0166201379 -5.9907430000  4.6117430000
H  -0.0192330000 -7.2217530000  2.4797690000
C   0.0503350000  6.7035470000  0.0051724138
O   1.0705530000  7.3696080000  0.1000000000
O  -1.1822120000  7.2411190000 -0.1000000000
H  -1.0888630000  8.2128740000 -0.0862068966
