75
Deterministic monocarboxylated circumcoronene class1; source C54H18 SHA256=226f0401e0a690645ca9d5d85304ebac51da41321fc953c5148a74ab938b072b; torsion=+90.0 deg; output COOH atoms=C72/O73/O74/H75
C  -0.71000000  -6.14878037   0.00000000
C   0.71000000  -6.14878037   0.00000000
C  -2.84000000  -4.91902429   0.00000000
C  -1.42000000  -4.91902429   0.00000000
C   1.42000000  -4.91902429   0.00000000
C   2.84000000  -4.91902429   0.00000000
C  -4.97000000  -3.68926822   0.00000000
C  -3.55000000  -3.68926822   0.00000000
C  -0.71000000  -3.68926822   0.00000000
C   0.71000000  -3.68926822   0.00000000
C   3.55000000  -3.68926822   0.00000000
C   4.97000000  -3.68926822   0.00000000
C  -5.68000000  -2.45951215   0.00000000
C  -2.84000000  -2.45951215   0.00000000
C  -1.42000000  -2.45951215   0.00000000
C   1.42000000  -2.45951215   0.00000000
C   2.84000000  -2.45951215   0.00000000
C   5.68000000  -2.45951215   0.00000000
C  -4.97000000  -1.22975607   0.00000000
C  -3.55000000  -1.22975607   0.00000000
C  -0.71000000  -1.22975607   0.00000000
C   0.71000000  -1.22975607   0.00000000
C   3.55000000  -1.22975607   0.00000000
C   4.97000000  -1.22975607   0.00000000
C  -5.68000000  -0.00000000   0.00000000
C  -2.84000000  -0.00000000   0.00000000
C  -1.42000000  -0.00000000   0.00000000
C   1.42000000  -0.00000000   0.00000000
C   2.84000000  -0.00000000   0.00000000
C   5.68000000  -0.00000000   0.00000000
C  -4.97000000   1.22975607   0.00000000
C  -3.55000000   1.22975607   0.00000000
C  -0.71000000   1.22975607   0.00000000
C   0.71000000   1.22975607   0.00000000
C   3.55000000   1.22975607   0.00000000
C   4.97000000   1.22975607   0.00000000
C  -5.68000000   2.45951215   0.00000000
C  -2.84000000   2.45951215   0.00000000
C  -1.42000000   2.45951215   0.00000000
C   1.42000000   2.45951215   0.00000000
C   2.84000000   2.45951215   0.00000000
C   5.68000000   2.45951215   0.00000000
C  -4.97000000   3.68926822   0.00000000
C  -3.55000000   3.68926822   0.00000000
C  -0.71000000   3.68926822   0.00000000
C   0.71000000   3.68926822   0.00000000
C   3.55000000   3.68926822   0.00000000
C   4.97000000   3.68926822   0.00000000
C  -2.84000000   4.91902429   0.00000000
C  -1.42000000   4.91902429   0.00000000
C   1.42000000   4.91902429   0.00000000
C   2.84000000   4.91902429   0.00000000
C  -0.71000000   6.14878037   0.00000000
C   0.71000000   6.14878037   0.00000000
H   1.25500000  -7.09274806   0.00000000
H  -3.38500000  -5.86299198   0.00000000
H   3.38500000  -5.86299198   0.00000000
H  -5.51500000  -4.63323591   0.00000000
H   5.51500000  -4.63323591   0.00000000
H  -6.77000000  -2.45951215   0.00000000
H   6.77000000  -2.45951215   0.00000000
H  -6.77000000  -0.00000000   0.00000000
H   6.77000000  -0.00000000   0.00000000
H  -6.77000000   2.45951215   0.00000000
H   6.77000000   2.45951215   0.00000000
H  -5.51500000   4.63323591   0.00000000
H   5.51500000   4.63323591   0.00000000
H  -3.38500000   5.86299198   0.00000000
H   3.38500000   5.86299198   0.00000000
H  -1.25500000   7.09274806   0.00000000
H   1.25500000   7.09274806   0.00000000
C  -1.45500000  -7.43915822   0.00000000
O  -1.76250000  -7.97176384  -1.06521125
O  -1.79500000  -8.02805550   1.17779455
H  -2.26940159  -8.84974315   0.97612021
