75
CLASS 1 / C1 | source=archive/logs/cooh_gqd_class1_c1_b3lyp_optfreq_v02.log | mode=1 | freq=-6.2326 cm-1 | MINUS imaginary-mode displacement | max_atom=0.10 A
C  -5.7156450000 -0.3832960000 -0.0013738630
C  -5.4393220000 -1.7296000000  0.0013728630
C  -4.8173700000  1.9785420000  0.0027447260
C  -4.6288300000  0.5891990000 -0.0013758630
C  -4.1115160000 -2.2443560000  0.0013728630
C  -3.8610580000 -3.6241510000  0.0013728630
C  -3.9521910000  4.3006470000  0.0068663151
C  -3.7440350000  2.8788910000  0.0041195890
C  -3.2825930000  0.0835120000 -0.0000010000
C  -3.0251350000 -1.3194010000  0.0000010000
C  -2.5570580000 -4.1294990000  0.0013718630
C  -2.2798100000 -5.5394390000  0.0013718630
C  -2.9040100000  5.1722510000  0.0068673151
C  -2.4068060000  2.3870960000  0.0027457260
C  -2.1817850000  0.9864940000  0.0013718630
C  -1.6953020000 -1.8150650000  0.0000000000
C  -1.4561060000 -3.2159430000  0.0000010000
C  -1.0014920000 -6.0111890000  0.0000010000
C  -1.5448180000  4.7071880000  0.0054924521
C  -1.3098480000  3.2969600000  0.0027477260
C  -0.8398090000  0.4912050000  0.0013708630
C  -0.5965590000 -0.9053480000  0.0000000000
C  -0.1199200000 -3.7112450000 -0.0000000000
C   0.1260260000 -5.1202800000 -0.0000000000
C  -0.4523890000  5.5850460000  0.0054924521
C   0.0196690000  2.8044450000  0.0027447260
C   0.2549300000  1.3960830000  0.0013718630
C   0.7335470000 -1.3986710000 -0.0000010000
C   0.9733290000 -2.8062020000 -0.0000010000
C   1.4467920000 -5.5870040000 -0.0013718630
C   0.8684890000  5.1179060000  0.0041185890
C   1.1132690000  3.7092100000  0.0027457260
C   1.5860180000  0.9037340000  0.0000000000
C   1.8255910000 -0.4941800000 -0.0000010000
C   2.3045850000 -3.2987910000 -0.0013728630
C   2.5392240000 -4.7091020000 -0.0013728630
C   1.9981880000  6.0061850000  0.0041185890
C   2.4490890000  3.2138080000  0.0013728630
C   2.6866140000  1.8147310000  0.0000010000
C   3.1647790000 -0.9905520000 -0.0013728630
C   3.4019350000 -2.3896770000 -0.0013738630
C   3.8986620000 -5.1743320000 -0.0013748630
C   3.2763330000  5.5320650000  0.0027457260
C   3.5535220000  4.1219850000  0.0013728630
C   4.0173400000  1.3204930000 -0.0013718630
C   4.2569510000 -0.0843790000 -0.0013728630
C   4.7442980000 -2.8819180000 -0.0027447260
C   4.9484500000 -4.3042850000 -0.0027457260
C   4.8595930000  3.6146370000  0.0000000000
C   5.1150860000  2.2367860000 -0.0013718630
C   5.5958000000 -0.5864420000 -0.0027447260
C   5.8095820000 -1.9714370000 -0.0027457260
C   6.4492240000  1.7027300000 -0.0013738630
C   6.6782250000  0.3587610000 -0.0027457260
H  -6.2526090000 -2.4441090000 -0.0000010000
H  -5.8211010000  2.3756830000  0.0013708630
H  -4.7005510000 -4.3132440000  0.0027437260
H  -4.9738240000  4.6682860000  0.0082391781
H  -3.1207190000 -6.2262570000  0.0013738630
H  -3.0791900000  6.2439090000  0.0096110411
H  -0.8093590000 -7.0798600000  0.0000010000
H  -0.6348530000  6.6560120000  0.0068653151
H   1.6290110000 -6.6579540000 -0.0013718630
H   1.8085210000  7.0753660000  0.0041215890
H   4.0730900000 -6.2460770000 -0.0027447260
H   4.1171890000  6.2191810000  0.0013758630
H   5.9689720000 -4.6751890000 -0.0027467260
H   5.6963260000  4.3075750000  0.0000000000
H   6.8281220000 -2.3492170000 -0.0027477260
H   7.2805010000  2.4014210000 -0.0027447260
H   7.6938520000 -0.0253980000 -0.0027467260
C  -7.1432250000  0.0284330000 -0.0137376301
O  -7.5713690000  1.1764370000 -0.1002630000
O  -8.0004380000 -1.0214590000  0.0782941918
H  -8.8999830000 -0.6493710000  0.0439596164
