75
final geometry from archive/logs/cooh_gqd_b3lyp_optfreq_v01.run001.log; sha256=bcc0062f2341239b8cc12a2f92ef14f714c558ca4acf3b2e7d73c92b5d1c8467; atom_order=preserved
C       -0.42121400      1.36798600      0.72376100
C       -1.43072500     -0.68958700     -2.07165800
C        0.89834000      1.58775500      0.19779900
C       -1.14990000      0.72989200     -1.89007800
C        1.24423600      1.53572800     -1.18117900
C        0.28289400      0.86316600     -2.01370100
C       -0.57507700      0.42364200      1.76982000
C       -2.49495100     -1.31876000     -1.45109700
C        1.95675300      1.43728400      1.15926600
C       -2.07929800      1.40788300     -1.07739600
C        2.66279000      1.37140400     -1.46963600
C        0.80221900     -0.41130600     -2.46141700
C        0.61211800     -0.36052500      2.13799900
C       -0.89063000     -2.87894800     -0.43702500
C       -3.64657500     -0.54386500     -1.11935500
C       -2.23588200     -2.51117200     -0.71287700
C        3.26619900      1.85265600      0.83612400
C        1.80241100      0.44490400      2.17583600
C       -1.63991400      1.92647200      0.20126500
C       -3.49611700      0.86713700     -1.02988100
C        3.11193200      0.24882200     -2.23439900
C        3.63479800      1.85847000     -0.54773700
C        2.13129100     -0.76729300     -2.42707600
C       -0.21405700     -1.36830600     -2.19256500
C        0.74457400     -1.73613700      2.40987800
C       -0.76278300     -3.41141700      0.95357700
C       -4.75965200     -1.20539000     -0.52819900
C       -3.35049800     -3.15170000     -0.04630500
C        4.30952300      1.72000900      1.81759600
C        2.93333700      0.04901200      2.93424200
C       -2.73582400      2.15850600      1.09580100
C       -4.47791600      1.58828000     -0.32183500
C        4.48119400     -0.11509600     -2.29878400
C        5.03056500      1.72384000     -0.84604800
C        2.47105800     -2.13659400     -2.12142000
C        0.13393000     -2.47540600     -1.36160100
C       -0.15820500     -2.87581800      2.06268800
C       -4.60037100     -2.57666500     -0.11298300
C        4.10947400      0.84775100      2.87860000
C       -3.89923900      2.75991000      0.40636300
C        5.43912500      0.79127700     -1.80743000
C        1.50394400     -2.90383500     -1.45363700
C        1.89183700     -2.11707000      3.18138700
C       -1.78180900     -4.45470600      1.24789700
C       -5.84634900     -0.41631100     -0.10382600
C       -3.03290900     -4.32633700      0.75571200
C        5.63729100      2.18086800      1.45229400
C        2.89830200     -1.24178300      3.52490900
C       -2.80010900      1.31863000      2.21689800
C       -5.69306800      0.96420400      0.00666100
C        4.80345400     -1.51431900     -2.50714000
C        5.98727000      2.19674700      0.14184800
C        3.86333300     -2.48593400     -2.30471800
C       -1.79442900      0.37516400      2.46907600
H       -0.34436000     -3.48624900      2.94828500
H       -5.44924900     -3.07760200      0.34360600
H        4.93682100      0.61997800      3.54442400
C       -3.76251300      4.03598200     -0.16649400
H        6.49796400      0.57775900     -1.91819100
H        1.80635600     -3.83120100     -0.97663000
H        1.96149300     -3.15242500      3.50003400
H       -1.53676800     -5.22912700      1.96875400
H       -6.73420400     -0.89759300      0.29535600
H       -3.82764500     -5.00739300      1.04362400
H        6.37107300      2.35745800      2.23217400
H        3.73344100     -1.57542000      4.13238900
H       -3.69501300      1.32571600      2.83174500
H       -6.46030900      1.54725300      0.50663100
H        5.84736900     -1.78458100     -2.63090700
H        7.01277300      2.37720900     -0.16398400
H        4.15874500     -3.52880600     -2.25005000
H       -1.91918700     -0.35352200      3.26264000
O       -2.98292600      4.95493100      0.18157100
O       -4.68172400      4.30194300     -1.18184200
H       -4.52717800      5.22893900     -1.42653300
