52
final geometry from archive/logs/erlotinib_b3lyp_optfreq_v01.run001.log; sha256=042787f2a35a5ff283eafb0d8fab152d3fcb02d8c123780b26f8358f4a7698a4; atom_order=preserved
O        2.85305200      1.60736900     -0.10539200
O        4.19045500     -0.54967300      0.30954400
O       -0.05565100      3.34551600      0.24813500
O        6.92322100     -0.78630200     -0.88325400
N       -2.14856600      0.15720600     -0.19418800
N        0.17833200     -3.23675800      0.32518100
N       -1.95522900     -2.16127100      0.07042200
C        0.05023100     -0.81928400      0.00969600
C        0.78976100     -2.01101900      0.21358300
C        2.10101800      0.47212200     -0.01057800
C        2.85031900     -0.72833200      0.21410900
C        0.73125900      0.41613800     -0.11234700
C       -1.38021200     -0.96361500     -0.03848100
C        2.20022800     -1.94098900      0.31159100
C        2.21201400      2.85097300     -0.44870900
C       -3.53807700      0.33143800     -0.27622600
C        5.02957600     -1.71326500      0.39218200
C       -1.13458400     -3.22234800      0.23930000
C        1.31299000      3.42040900      0.65053700
C        6.47550300     -1.26165100      0.38118800
C       -4.47970500     -0.69080800     -0.11109500
C       -3.98361500      1.64174000     -0.53509600
C       -5.85187900     -0.39728700     -0.20455900
C       -5.34204400      1.92226100     -0.62203900
C       -6.28881800      0.91287100     -0.45914400
C       -0.94397300      3.49763800      1.34911800
C        6.61352200      0.58208200     -1.14292300
C       -6.80365100     -1.45201400     -0.03618200
C       -7.60863500     -2.34606100      0.10455400
H        0.19061100      1.33913500     -0.26726000
H        2.74576500     -2.86144500      0.47208400
H       -1.63717700      1.02599500     -0.26441800
H        1.64080200      2.73679000     -1.37728900
H        3.05135700      3.52054800     -0.63671000
H        4.81953500     -2.25693900      1.32118200
H        4.82798200     -2.37282400     -0.45916100
H       -1.63955300     -4.18251700      0.31799000
H        1.47591900      2.85922200      1.58060300
H        1.57369900      4.46919800      0.84490500
H        6.63565400     -0.50291100      1.15988800
H        7.09228500     -2.13367200      0.62130000
H       -4.15169900     -1.69888800      0.08400700
H       -3.25404100      2.43379600     -0.67367100
H       -5.66367900      2.93911200     -0.82169500
H       -7.34931200      1.12620000     -0.52803500
H       -1.96124300      3.46876300      0.95394600
H       -0.78447400      4.45557900      1.86220000
H       -0.81557100      2.68241100      2.07431100
H        5.54201800      0.74505800     -1.29755800
H        6.94945400      1.22558700     -0.31824500
H        7.15359000      0.86020300     -2.05146600
H       -8.31966900     -3.13391200      0.23004500
